p cnf 256 1
-142 -86 -179 -110 -194 -118 -68 -199 -43 -113 -165 -56 -91 -198 -178 4 8 11 13 21 25 26 27 28 30 34 37 43 47 48 53 56 58 61 68 69 73 76 78 79 81 84 86 91 101 106 110 112 113 118 119 120 123 124 126 131 132 137 140 141 142 144 146 148 149 150 153 155 156 158 160 162 165 166 167 173 178 179 181 183 185 187 189 191 194 196 197 198 199 200 208 212 215 216 217 218 221 228 241 243 255 0
